kipet/examples/example_7/_reconciled.nl
g3 1 1 0	# problem unknown
 26 26 0 0 26 	# vars, constraints, objectives, ranges, eqns
 9 0 0 0 0 0	# nonlinear constrs, objs; ccons: lin, nonlin, nd, nzlb
 0 0	# network constraints: nonlinear, linear
 12 0 0 	# nonlinear vars in constraints, objectives, both
 0 0 0 1	# linear network variables; functions; arith, flags
 0 0 0 0 0 	# discrete variables: binary, integer, nonlinear (b,c,o)
 77 0 	# nonzeros in Jacobian, obj. gradient
 27 17	# max name lengths: constraints, variables
 0 0 0 0 0	# common exprs: b,c,o,c1,o1
C0	#odes[0.155051,A]
o2	#*
v6	#step[0.155051,b1]
o2	#*
n2.0
v0	#Z[0.155051,A]
C1	#odes[0.155051,B]
o0	#+
o2	#*
n-1
o2	#*
v6	#step[0.155051,b1]
o2	#*
n2.0
v0	#Z[0.155051,A]
o2	#*
v7	#step[0.155051,b2]
o2	#*
n0.2
v1	#Z[0.155051,B]
C2	#odes[0.155051,C]
o2	#*
n-1
o2	#*
v7	#step[0.155051,b2]
o2	#*
n0.2
v1	#Z[0.155051,B]
C3	#odes[0.644949,A]
o2	#*
v8	#step[0.644949,b1]
o2	#*
n2.0
v2	#Z[0.644949,A]
C4	#odes[0.644949,B]
o0	#+
o2	#*
n-1
o2	#*
v8	#step[0.644949,b1]
o2	#*
n2.0
v2	#Z[0.644949,A]
o2	#*
v9	#step[0.644949,b2]
o2	#*
n0.2
v3	#Z[0.644949,B]
C5	#odes[0.644949,C]
o2	#*
n-1
o2	#*
v9	#step[0.644949,b2]
o2	#*
n0.2
v3	#Z[0.644949,B]
C6	#odes[1,A]
o2	#*
v10	#step[1,b1]
o2	#*
n2.0
v4	#Z[1,A]
C7	#odes[1,B]
o0	#+
o2	#*
n-1
o2	#*
v10	#step[1,b1]
o2	#*
n2.0
v4	#Z[1,A]
o2	#*
v11	#step[1,b2]
o2	#*
n0.2
v5	#Z[1,B]
C8	#odes[1,C]
o2	#*
n-1
o2	#*
v11	#step[1,b2]
o2	#*
n0.2
v5	#Z[1,B]
C9	#stepconstraint[0,b1]
n0
C10	#stepconstraint[0,b2]
n0
C11	#stepconstraint[0.155051,b1]
n0
C12	#stepconstraint[0.155051,b2]
n0
C13	#stepconstraint[0.644949,b1]
n0
C14	#stepconstraint[0.644949,b2]
n0
C15	#stepconstraint[1,b1]
n0
C16	#stepconstraint[1,b2]
n0
C17	#dZdt_deq_aug[0.155051,A]
n0
C18	#dZdt_deq_aug[0.155051,B]
n0
C19	#dZdt_deq_aug[0.155051,C]
n0
C20	#dZdt_deq_aug[0.644949,A]
n0
C21	#dZdt_deq_aug[0.644949,B]
n0
C22	#dZdt_deq_aug[0.644949,C]
n0
C23	#dZdt_deq_aug[1,A]
n0
C24	#dZdt_deq_aug[1,B]
n0
C25	#dZdt_deq_aug[1,C]
n0
x17	# initial guess
0 1
1 1
2 1
3 1
4 1
5 1
6 1.0
7 1.0
8 1.0
9 1.0
10 1.0
11 1.0
12 1
13 1
14 1
24 1.0
25 1.0
r	#26 ranges (rhs's)
4 0.0
4 0.0
4 0.0
4 0.0
4 0.0
4 0.0
4 0.0
4 0.0
4 0.0
4 6.249882814945984e-06
4 5.668837831762641e-06
4 6.249882814945984e-06
4 5.668837831762641e-06
4 6.249882814945984e-06
4 5.668837831762641e-06
4 6.249882814945984e-06
4 5.668837831762641e-06
4 -4.139387691339813
4 -4.139387691339813
4 -4.139387691339813
4 1.7393876913398163
4 1.7393876913398163
4 1.7393876913398163
4 -2.999999999999993
4 -2.999999999999993
4 -2.999999999999993
b	#26 bounds (on variables)
3
3
3
3
3
3
3
3
3
3
3
3
3
3
3
3
3
3
3
3
3
3
3
3
3
3
k25	#intermediate Jacobian column lengths
5
10
15
20
25
30
33
36
39
42
45
48
51
54
57
59
61
63
65
67
69
71
73
75
76
J0 3
15 1
0 0
6 0
J1 5
16 1
0 0
1 0
6 0
7 0
J2 3
17 1
1 0
7 0
J3 3
18 1
2 0
8 0
J4 5
19 1
2 0
3 0
8 0
9 0
J5 3
20 1
3 0
9 0
J6 3
21 1
4 0
10 0
J7 5
22 1
4 0
5 0
10 0
11 0
J8 3
23 1
5 0
11 0
J9 1
24 1
J10 1
25 1
J11 1
6 1
J12 1
7 1
J13 1
8 1
J14 1
9 1
J15 1
10 1
J16 1
11 1
J17 4
0 -3.2247448713915885
2 -1.1678400846904051
4 0.2531972647421808
15 1.0
J18 4
1 -3.2247448713915885
3 -1.1678400846904051
5 0.2531972647421808
16 1.0
J19 4
12 -3.2247448713915885
13 -1.1678400846904051
14 0.2531972647421808
17 1.0
J20 4
0 3.5678400846904044
2 -0.7752551286084095
4 -1.0531972647421817
18 1.0
J21 4
1 3.5678400846904044
3 -0.7752551286084095
5 -1.0531972647421817
19 1.0
J22 4
12 3.5678400846904044
13 -0.7752551286084095
14 -1.0531972647421817
20 1.0
J23 4
0 -5.531972647421805
2 7.531972647421807
4 -5.000000000000001
21 1.0
J24 4
1 -5.531972647421805
3 7.531972647421807
5 -5.000000000000001
22 1.0
J25 4
12 -5.531972647421805
13 7.531972647421807
14 -5.000000000000001
23 1.0
