kipet/examples/example_7/_reconciled.col
Z[0.155051,A]
Z[0.155051,B]
Z[0.644949,A]
Z[0.644949,B]
Z[1,A]
Z[1,B]
step[0.155051,b1]
step[0.155051,b2]
step[0.644949,b1]
step[0.644949,b2]
step[1,b1]
step[1,b2]
Z[0.155051,C]
Z[0.644949,C]
Z[1,C]
dZdt[0.155051,A]
dZdt[0.155051,B]
dZdt[0.155051,C]
dZdt[0.644949,A]
dZdt[0.644949,B]
dZdt[0.644949,C]
dZdt[1,A]
dZdt[1,B]
dZdt[1,C]
step[0,b1]
step[0,b2]
